Route 1: 0 27 33 35 15 46 34 0
Route 2: 0 1 6 82 76 12 89 94 16 23 59 0
Route 3: 0 71 45 7 52 55 60 91 96 30 0
Route 4: 0 11 2 29 25 28 83 88 26 65 99 53 0
Route 5: 0 74 77 84 47 75 4 57 85 0
Route 6: 0 39 72 37 92 90 86 0
Route 7: 0 73 61 78 19 62 48 51 31 38 69 22 0
Route 8: 0 18 36 80 10 54 79 50 21 68 0
Route 9: 0 8 67 17 42 87 13 9 0
Route 10: 0 100 97 81 58 44 56 93 14 49 32 0
Route 11: 0 43 41 70 63 66 98 64 0
Route 12: 0 24 95 3 20 40 5 0
